m = 3;
l = [12, 8, 5];

n = 6;
s = [2, 4, 3, 1, 2, 1];

D =[| 0, 3, 5, 4, 7, 6, 3
    | 1, 0, 4, 3, 5, 4, 5
    | 2, 3, 0, 3, 4, 2, 3
    | 5, 3, 3, 0, 5, 4, 2
    | 4, 2, 5, 6, 0, 3, 1
    | 5, 4, 2, 3, 2, 0, 6
    | 4, 5, 3, 1, 2, 5, 0 |]
    
% ----------
% [| 8 | 8 | 6 |]

% [| 0 | 0 | 0 | 0 | 2 | 1 |]
% [| 2 | 4 | 0 | 1 | 0 | 0 |]
% [| 0 | 0 | 3 | 0 | 0 | 0 |]

% [| 0 | 0 | 0 | 0 | 2 | 1 |]
% [| 3 | 2 | 0 | 1 | 0 | 0 |]
% [| 0 | 0 | 1 | 0 | 0 | 0 |]
% ----------
% ==========
% %%%mzn-stat: failures=3258
% %%%mzn-stat: initTime=0.012
% %%%mzn-stat: nodes=6523
% %%%mzn-stat: peakDepth=18
% %%%mzn-stat: propagations=1100843
% %%%mzn-stat: propagators=1138
% %%%mzn-stat: restarts=0
% %%%mzn-stat: solutions=3
% %%%mzn-stat: solveTime=0.08
% %%%mzn-stat: variables=826
% %%%mzn-stat-end
% %%%mzn-stat: nSolutions=3
% %%%mzn-stat-end
% Finished in 337msec.